[ti. 04. april 15:01:49 +0200 2023]  ./input/alternate_g_np/50-1-4.gcc
Set parameter Username
Academic license - for non-commercial use only - expires 2024-03-28
Set parameter TimeLimit to value 1800
Set parameter PreCrush to value 1
Set parameter LazyConstraints to value 1
Gurobi Optimizer version 10.0.1 build v10.0.1rc0 (linux64)

CPU model: AMD Ryzen 9 5950X 16-Core Processor, instruction set [SSE2|AVX|AVX2]
Thread count: 16 physical cores, 32 logical processors, using up to 32 threads

Optimize a model with 52 rows, 150 columns and 350 nonzeros
Model fingerprint: 0x7360603f
Variable types: 0 continuous, 150 integer (150 binary)
Coefficient statistics:
  Matrix range     [1e+00, 1e+00]
  Objective range  [7e+00, 1e+02]
  Bounds range     [1e+00, 1e+00]
  RHS range        [1e+00, 1e+00]
Presolve time: 0.00s
Presolved: 52 rows, 150 columns, 350 nonzeros
Variable types: 0 continuous, 150 integer (150 binary)

Root relaxation: objective 2.729000e+03, 2 iterations, 0.00 seconds (0.00 work units)

    Nodes    |    Current Node    |     Objective Bounds      |     Work
 Expl Unexpl |  Obj  Depth IntInf | Incumbent    BestBd   Gap | It/Node Time

     0     0 2729.00000    0    2          - 2729.00000      -     -    0s
     0     0 2729.00000    0    8          - 2729.00000      -     -    0s
     0     0 2729.00000    0    -          - 2729.00000      -     -    0s
     0     0 2729.00000    0    -          - 2729.00000      -     -    0s
     0     0 2729.00000    0   14          - 2729.00000      -     -    0s
     0     0 2729.00000    0    -          - 2729.00000      -     -    0s
     0     0 2729.00000    0    -          - 2729.00000      -     -    0s
     0     0 2729.00000    0   12          - 2729.00000      -     -    0s
     0     0 2729.00000    0    -          - 2729.00000      -     -    0s
     0     0 2729.00000    0   14          - 2729.00000      -     -    0s
     0     2 2729.00000    0    6          - 2729.00000      -     -    0s
*38064 15868              33     185.0000000 1994.00000   978%   7.6    2s
*38229 15917              32     193.0000000 1992.00000   932%   7.6    2s
*38231 15917              33     208.0000000 1992.00000   858%   7.6    2s
*38234 15917              23     249.0000000 1992.00000   700%   7.6    2s
*39094 16212              27     281.0000000 1987.50000   607%   7.7    2s
*50658 16622              39     297.0000000 1892.00000   537%   8.8    3s
*51430 16826              31     329.0000000 1891.00000   475%   8.9    3s
*52211 16390              39     417.0000000 1876.00000   350%   8.9    3s
 66182 20309 1027.00000   55    4  417.00000 1296.23077   211%   9.3    5s
*79466 23583              64     420.0000000 1095.00000   161%   9.4    6s
*83095 22523              60     424.0000000 1017.00000   140%   9.4    6s
*86125 20507              57     452.0000000  977.41176   116%   9.4    6s
*86468 19392              60     461.0000000  977.41176   112%   9.4    6s
*86712 17886              57     474.0000000  959.33333   102%   9.4    6s
*87660 15398              39     524.0000000  932.00000  77.9%   9.4    6s

Cutting planes:
  User: 27
  Lazy constraints: 1144

Explored 108304 nodes (996680 simplex iterations) in 7.70 seconds (3.11 work units)
Thread count was 32 (of 32 available processors)

Solution count 10: 524 474 461 ... 281

Optimal solution found (tolerance 1.00e-04)
Best objective 5.240000000000e+02, best bound 5.240000000000e+02, gap 0.0000%

User-callback calls 220374, time in user-callback 1.60 sec
Minimal separator inequalities added: 82592
Indegree inequalities added: 0
Passed solution check
[ti. 04. april 15:01:56 +0200 2023]  done

